c This is QMaxSAT 2017 based on 14.07
c This is Glucose 3.0
c This is MiniSat 2.2.0
c WARNING: for repeatability, setting FPU to use double precision
c card = mrwto, comp = 0, pmodel = 0, narr = 33, mct = 76, verb = 0
cr firstCPXsol 0 0 0
c top = 189219
c |  Number of variables:    23328                                            |
c |  Number of clauses:      1979616                                          |
c |  Weight of hard clauses: 189219                                           |
c |  Number of soft clauses: 346500                                           |
c |  Number of unit soft clauses: 0                                           |
c |  Maximum Cardinality (by unit): 11241186     (0           )               |
c last restart ## conflicts  :  3 7610 
o 744 | cpuTime 9.888 s
c Sum of weights = 340642
c A number of soft clauses remained = 10500
c MRWTO encoding for Pseudo-Boolean Constraints
c sizeMax=744
c No.0 Divisor=10	generated by pow1
c No.1 Divisor=10	generated by pow1
c No.2 Divisor=10	generated by pow1
c p0= 10	p1= 10	p2= 10	
c number of digits = 4
c linkingVar[0].size = 10, linkingVar[1].size = 10, linkingVar[2].size = 8, linkingVar[3].size = 1, 
c Pseudo-Boolean Constraints: 188582 variables and 1452101 clauses
c Sum of weights = 340642
c A number of soft clauses remained = 10500
c MRWTO encoding for Pseudo-Boolean Constraints
c sizeMax=744
c No.0 Divisor=10	generated by pow1
c No.1 Divisor=10	generated by pow1
c No.2 Divisor=10	generated by pow1
c p0= 10	p1= 10	p2= 10	
c number of digits = 4
c linkingVar[0].size = 10, linkingVar[1].size = 10, linkingVar[2].size = 8, linkingVar[3].size = 1, 
c Pseudo-Boolean Constraints: 188582 variables and 1452101 clauses
c Sum of weights = 340642
c A number of soft clauses remained = 10500
c MRWTO encoding for Pseudo-Boolean Constraints
c sizeMax=744
c No.0 Divisor=10	generated by pow1
c No.1 Divisor=10	generated by pow1
c No.2 Divisor=10	generated by pow1
c p0= 10	p1= 10	p2= 10	
c number of digits = 4
c linkingVar[0].size = 10, linkingVar[1].size = 10, linkingVar[2].size = 8, linkingVar[3].size = 1, 
c Pseudo-Boolean Constraints: 188582 variables and 1452101 clauses
c Sum of weights = 340642
c A number of soft clauses remained = 10500
c MRWTO encoding for Pseudo-Boolean Constraints
c sizeMax=744
c No.0 Divisor=10	generated by pow1
c No.1 Divisor=10	generated by pow1
c No.2 Divisor=10	generated by pow1
c p0= 10	p1= 10	p2= 10	
c number of digits = 4
c linkingVar[0].size = 10, linkingVar[1].size = 10, linkingVar[2].size = 8, linkingVar[3].size = 1, 
c Pseudo-Boolean Constraints: 188582 variables and 1452101 clauses
c Sum of weights = 340642
c A number of soft clauses remained = 10500
c MRWTO encoding for Pseudo-Boolean Constraints
c sizeMax=744
c No.0 Divisor=10	generated by pow1
c No.1 Divisor=10	generated by pow1
c No.2 Divisor=10	generated by pow1
c p0= 10	p1= 10	p2= 10	
c number of digits = 4
c linkingVar[0].size = 10, linkingVar[1].size = 10, linkingVar[2].size = 8, linkingVar[3].size = 1, 
c Pseudo-Boolean Constraints: 188582 variables and 1452101 clauses
c Sum of weights = 340642
c A number of soft clauses remained = 10500
c MRWTO encoding for Pseudo-Boolean Constraints
c sizeMax=744
c No.0 Divisor=10	generated by pow1
c No.1 Divisor=10	generated by pow1
c No.2 Divisor=10	generated by pow1
c p0= 10	p1= 10	p2= 10	
c number of digits = 4
c linkingVar[0].size = 10, linkingVar[1].size = 10, linkingVar[2].size = 8, linkingVar[3].size = 1, 
c Pseudo-Boolean Constraints: 188582 variables and 1452101 clauses
c Sum of weights = 340642
c A number of soft clauses remained = 10500
c MRWTO encoding for Pseudo-Boolean Constraints
c sizeMax=744
c No.0 Divisor=10	generated by pow1
c No.1 Divisor=10	generated by pow1
c No.2 Divisor=10	generated by pow1
c p0= 10	p1= 10	p2= 10	
c number of digits = 4
c linkingVar[0].size = 10, linkingVar[1].size = 10, linkingVar[2].size = 8, linkingVar[3].size = 1, 
c Pseudo-Boolean Constraints: 188582 variables and 1452101 clauses
c Sum of weights = 340642
c A number of soft clauses remained = 10500
c MRWTO encoding for Pseudo-Boolean Constraints
c sizeMax=744
c No.0 Divisor=10	generated by pow1
c No.1 Divisor=10	generated by pow1
c No.2 Divisor=10	generated by pow1
c p0= 10	p1= 10	p2= 10	
c number of digits = 4
c linkingVar[0].size = 10, linkingVar[1].size = 10, linkingVar[2].size = 8, linkingVar[3].size = 1, 
c Pseudo-Boolean Constraints: 188582 variables and 1452101 clauses
c Sum of weights = 340642
c A number of soft clauses remained = 10500
c MRWTO encoding for Pseudo-Boolean Constraints
c sizeMax=744
c No.0 Divisor=10	generated by pow1
c No.1 Divisor=10	generated by pow1
c No.2 Divisor=10	generated by pow1
c p0= 10	p1= 10	p2= 10	
c number of digits = 4
c linkingVar[0].size = 10, linkingVar[1].size = 10, linkingVar[2].size = 8, linkingVar[3].size = 1, 
c Pseudo-Boolean Constraints: 188582 variables and 1452101 clauses
c Sum of weights = 340642
c A number of soft clauses remained = 10500
c MRWTO encoding for Pseudo-Boolean Constraints
c sizeMax=744
c No.0 Divisor=10	generated by pow1
c No.1 Divisor=10	generated by pow1
c No.2 Divisor=10	generated by pow1
c p0= 10	p1= 10	p2= 10	
c number of digits = 4
c linkingVar[0].size = 10, linkingVar[1].size = 10, linkingVar[2].size = 8, linkingVar[3].size = 1, 
c Pseudo-Boolean Constraints: 188582 variables and 1452101 clauses
c Sum of weights = 340642
c A number of soft clauses remained = 10500
c MRWTO encoding for Pseudo-Boolean Constraints
c sizeMax=744
c No.0 Divisor=10	generated by pow1
c No.1 Divisor=10	generated by pow1
c No.2 Divisor=10	generated by pow1
c p0= 10	p1= 10	p2= 10	
c number of digits = 4
c linkingVar[0].size = 10, linkingVar[1].size = 10, linkingVar[2].size = 8, linkingVar[3].size = 1, 
c Pseudo-Boolean Constraints: 188582 variables and 1452101 clauses
c Sum of weights = 340642
c A number of soft clauses remained = 10500
c MRWTO encoding for Pseudo-Boolean Constraints
c sizeMax=744
c No.0 Divisor=10	generated by pow1
c No.1 Divisor=10	generated by pow1
c No.2 Divisor=10	generated by pow1
c p0= 10	p1= 10	p2= 10	
c number of digits = 4
c linkingVar[0].size = 10, linkingVar[1].size = 10, linkingVar[2].size = 8, linkingVar[3].size = 1, 
c Pseudo-Boolean Constraints: 188582 variables and 1452101 clauses
c Sum of weights = 340642
c A number of soft clauses remained = 10500
c MRWTO encoding for Pseudo-Boolean Constraints
c sizeMax=744
c No.0 Divisor=10	generated by pow1
c No.1 Divisor=10	generated by pow1
c No.2 Divisor=10	generated by pow1
c p0= 10	p1= 10	p2= 10	
c number of digits = 4
c linkingVar[0].size = 10, linkingVar[1].size = 10, linkingVar[2].size = 8, linkingVar[3].size = 1, 
c Pseudo-Boolean Constraints: 188582 variables and 1452101 clauses
c Sum of weights = 340642
c A number of soft clauses remained = 10500
c MRWTO encoding for Pseudo-Boolean Constraints
c sizeMax=744
c No.0 Divisor=10	generated by pow1
c No.1 Divisor=10	generated by pow1
c No.2 Divisor=10	generated by pow1
c p0= 10	p1= 10	p2= 10	
c number of digits = 4
c linkingVar[0].size = 10, linkingVar[1].size = 10, linkingVar[2].size = 8, linkingVar[3].size = 1, 
c Pseudo-Boolean Constraints: 188582 variables and 1452101 clauses
c Sum of weights = 340642
c A number of soft clauses remained = 10500
c MRWTO encoding for Pseudo-Boolean Constraints
c sizeMax=744
c No.0 Divisor=10	generated by pow1
c No.1 Divisor=10	generated by pow1
c No.2 Divisor=10	generated by pow1
c p0= 10	p1= 10	p2= 10	
c number of digits = 4
c linkingVar[0].size = 10, linkingVar[1].size = 10, linkingVar[2].size = 8, linkingVar[3].size = 1, 
c Pseudo-Boolean Constraints: 188582 variables and 1452101 clauses
c Sum of weights = 340642
c A number of soft clauses remained = 10500
c MRWTO encoding for Pseudo-Boolean Constraints
c sizeMax=744
c No.0 Divisor=10	generated by pow1
c No.1 Divisor=10	generated by pow1
c No.2 Divisor=10	generated by pow1
c p0= 10	p1= 10	p2= 10	
c number of digits = 4
c linkingVar[0].size = 10, linkingVar[1].size = 10, linkingVar[2].size = 8, linkingVar[3].size = 1, 
c Pseudo-Boolean Constraints: 188582 variables and 1452101 clauses
c Sum of weights = 340642
c A number of soft clauses remained = 10500
c MRWTO encoding for Pseudo-Boolean Constraints
c sizeMax=744
c No.0 Divisor=10	generated by pow1
c No.1 Divisor=10	generated by pow1
c No.2 Divisor=10	generated by pow1
c p0= 10	p1= 10	p2= 10	
c number of digits = 4
c linkingVar[0].size = 10, linkingVar[1].size = 10, linkingVar[2].size = 8, linkingVar[3].size = 1, 
c Pseudo-Boolean Constraints: 188582 variables and 1452101 clauses
c Sum of weights = 340642
c A number of soft clauses remained = 10500
c MRWTO encoding for Pseudo-Boolean Constraints
c sizeMax=744
c No.0 Divisor=10	generated by pow1
c No.1 Divisor=10	generated by pow1
c No.2 Divisor=10	generated by pow1
c p0= 10	p1= 10	p2= 10	
c number of digits = 4
c linkingVar[0].size = 10, linkingVar[1].size = 10, linkingVar[2].size = 8, linkingVar[3].size = 1, 
c Pseudo-Boolean Constraints: 188582 variables and 1452101 clauses
c Sum of weights = 340642
c A number of soft clauses remained = 10500
c MRWTO encoding for Pseudo-Boolean Constraints
c sizeMax=744
c No.0 Divisor=10	generated by pow1
c No.1 Divisor=10	generated by pow1
c No.2 Divisor=10	generated by pow1
c p0= 10	p1= 10	p2= 10	
c number of digits = 4
c linkingVar[0].size = 10, linkingVar[1].size = 10, linkingVar[2].size = 8, linkingVar[3].size = 1, 
c Pseudo-Boolean Constraints: 188582 variables and 1452101 clauses
c Sum of weights = 340642
c A number of soft clauses remained = 10500
c MRWTO encoding for Pseudo-Boolean Constraints
c sizeMax=744
c No.0 Divisor=10	generated by pow1
c No.1 Divisor=10	generated by pow1
c No.2 Divisor=10	generated by pow1
c p0= 10	p1= 10	p2= 10	
c number of digits = 4
c linkingVar[0].size = 10, linkingVar[1].size = 10, linkingVar[2].size = 8, linkingVar[3].size = 1, 
c Pseudo-Boolean Constraints: 188582 variables and 1452101 clauses
c Sum of weights = 340642
c A number of soft clauses remained = 10500
c MRWTO encoding for Pseudo-Boolean Constraints
c sizeMax=744
c No.0 Divisor=10	generated by pow1
c No.1 Divisor=10	generated by pow1
c No.2 Divisor=10	generated by pow1
c p0= 10	p1= 10	p2= 10	
c number of digits = 4
c linkingVar[0].size = 10, linkingVar[1].size = 10, linkingVar[2].size = 8, linkingVar[3].size = 1, 
c Pseudo-Boolean Constraints: 188582 variables and 1452101 clauses
c Sum of weights = 340642
c A number of soft clauses remained = 10500
c MRWTO encoding for Pseudo-Boolean Constraints
c sizeMax=744
c No.0 Divisor=10	generated by pow1
c No.1 Divisor=10	generated by pow1
c No.2 Divisor=10	generated by pow1
c p0= 10	p1= 10	p2= 10	
c number of digits = 4
c linkingVar[0].size = 10, linkingVar[1].size = 10, linkingVar[2].size = 8, linkingVar[3].size = 1, 
c Pseudo-Boolean Constraints: 188582 variables and 1452101 clauses
c Sum of weights = 340642
c A number of soft clauses remained = 10500
c MRWTO encoding for Pseudo-Boolean Constraints
c sizeMax=744
c No.0 Divisor=10	generated by pow1
c No.1 Divisor=10	generated by pow1
c No.2 Divisor=10	generated by pow1
c p0= 10	p1= 10	p2= 10	
c number of digits = 4
c linkingVar[0].size = 10, linkingVar[1].size = 10, linkingVar[2].size = 8, linkingVar[3].size = 1, 
c Pseudo-Boolean Constraints: 188582 variables and 1452101 clauses
c Sum of weights = 340642
c A number of soft clauses remained = 10500
c MRWTO encoding for Pseudo-Boolean Constraints
c sizeMax=744
c No.0 Divisor=10	generated by pow1
c No.1 Divisor=10	generated by pow1
c No.2 Divisor=10	generated by pow1
c p0= 10	p1= 10	p2= 10	
c number of digits = 4
c linkingVar[0].size = 10, linkingVar[1].size = 10, linkingVar[2].size = 8, linkingVar[3].size = 1, 
c Pseudo-Boolean Constraints: 188582 variables and 1452101 clauses
c Sum of weights = 340642
c A number of soft clauses remained = 10500
c MRWTO encoding for Pseudo-Boolean Constraints
c sizeMax=744
c No.0 Divisor=10	generated by pow1
c No.1 Divisor=10	generated by pow1
c No.2 Divisor=10	generated by pow1
c p0= 10	p1= 10	p2= 10	
c number of digits = 4
c linkingVar[0].size = 10, linkingVar[1].size = 10, linkingVar[2].size = 8, linkingVar[3].size = 1, 
c Pseudo-Boolean Constraints: 188582 variables and 1452101 clauses
c Sum of weights = 340642
c A number of soft clauses remained = 10500
c MRWTO encoding for Pseudo-Boolean Constraints
c sizeMax=744
c No.0 Divisor=10	generated by pow1
c No.1 Divisor=10	generated by pow1
c No.2 Divisor=10	generated by pow1
c p0= 10	p1= 10	p2= 10	
c number of digits = 4
c linkingVar[0].size = 10, linkingVar[1].size = 10, linkingVar[2].size = 8, linkingVar[3].size = 1, 
c Pseudo-Boolean Constraints: 188582 variables and 1452101 clauses
c Sum of weights = 340642
c A number of soft clauses remained = 10500
c MRWTO encoding for Pseudo-Boolean Constraints
c sizeMax=744
c No.0 Divisor=10	generated by pow1
c No.1 Divisor=10	generated by pow1
c No.2 Divisor=10	generated by pow1
c p0= 10	p1= 10	p2= 10	
c number of digits = 4
c linkingVar[0].size = 10, linkingVar[1].size = 10, linkingVar[2].size = 8, linkingVar[3].size = 1, 
c Pseudo-Boolean Constraints: 188582 variables and 1452101 clauses
c Sum of weights = 340642
c A number of soft clauses remained = 10500
c MRWTO encoding for Pseudo-Boolean Constraints
c sizeMax=744
c No.0 Divisor=10	generated by pow1
c No.1 Divisor=10	generated by pow1
c No.2 Divisor=10	generated by pow1
c p0= 10	p1= 10	p2= 10	
c number of digits = 4
c linkingVar[0].size = 10, linkingVar[1].size = 10, linkingVar[2].size = 8, linkingVar[3].size = 1, 
c Pseudo-Boolean Constraints: 188582 variables and 1452101 clauses
c Sum of weights = 340642
c A number of soft clauses remained = 10500
c MRWTO encoding for Pseudo-Boolean Constraints
c sizeMax=744
c No.0 Divisor=10	generated by pow1
c No.1 Divisor=10	generated by pow1
c No.2 Divisor=10	generated by pow1
c p0= 10	p1= 10	p2= 10	
c number of digits = 4
c linkingVar[0].size = 10, linkingVar[1].size = 10, linkingVar[2].size = 8, linkingVar[3].size = 1, 
c Pseudo-Boolean Constraints: 188582 variables and 1452101 clauses
c Sum of weights = 340642
c A number of soft clauses remained = 10500
c MRWTO encoding for Pseudo-Boolean Constraints
c sizeMax=744
c No.0 Divisor=10	generated by pow1
c No.1 Divisor=10	generated by pow1
c No.2 Divisor=10	generated by pow1
c p0= 10	p1= 10	p2= 10	
c number of digits = 4
c linkingVar[0].size = 10, linkingVar[1].size = 10, linkingVar[2].size = 8, linkingVar[3].size = 1, 
c Pseudo-Boolean Constraints: 188582 variables and 1452101 clauses
c Sum of weights = 340642
c A number of soft clauses remained = 10500
c MRWTO encoding for Pseudo-Boolean Constraints
c sizeMax=744
c No.0 Divisor=10	generated by pow1
c No.1 Divisor=10	generated by pow1
c No.2 Divisor=10	generated by pow1
c p0= 10	p1= 10	p2= 10	
c number of digits = 4
c linkingVar[0].size = 10, linkingVar[1].size = 10, linkingVar[2].size = 8, linkingVar[3].size = 1, 
c Pseudo-Boolean Constraints: 188582 variables and 1452101 clauses
c Sum of weights = 340642
c A number of soft clauses remained = 10500
c MRWTO encoding for Pseudo-Boolean Constraints
c sizeMax=744
c No.0 Divisor=10	generated by pow1
c No.1 Divisor=10	generated by pow1
c No.2 Divisor=10	generated by pow1
c p0= 10	p1= 10	p2= 10	
c number of digits = 4
c linkingVar[0].size = 10, linkingVar[1].size = 10, linkingVar[2].size = 8, linkingVar[3].size = 1, 
c Pseudo-Boolean Constraints: 188582 variables and 1452101 clauses
c Sum of weights = 340642
c A number of soft clauses remained = 10500
c MRWTO encoding for Pseudo-Boolean Constraints
c sizeMax=744
c No.0 Divisor=10	generated by pow1
c No.1 Divisor=10	generated by pow1
c No.2 Divisor=10	generated by pow1
c p0= 10	p1= 10	p2= 10	
c number of digits = 4
c linkingVar[0].size = 10, linkingVar[1].size = 10, linkingVar[2].size = 8, linkingVar[3].size = 1, 
c Pseudo-Boolean Constraints: 188582 variables and 1452101 clauses
c last restart ## conflicts  :  284 59596 
o 718 | cpuTime 25.1209 s
c last restart ## conflicts  :  334 128315 
o 511 | cpuTime 53.9741 s
c last restart ## conflicts  :  203 34336 
o 452 | cpuTime 75.7983 s
c last restart ## conflicts  :  199 101290 
o 270 | cpuTime 91.3229 s
c last restart ## conflicts  :  228 67593 
o 258 | cpuTime 122.703 s
c last restart ## conflicts  :  249 58046 
o 243 | cpuTime 140.806 s
c last restart ## conflicts  :  451 114863 
o 231 | cpuTime 221.652 s
c last restart ## conflicts  :  486 87160 
o 209 | cpuTime 330.915 s
c last restart ## conflicts  :  350 79648 
o 190 | cpuTime 364.217 s
c last restart ## conflicts  :  158 44580 
o 179 | cpuTime 555.352 s
c last restart ## conflicts  :  409 150895 
o 169 | cpuTime 950.99 s
c last restart ## conflicts  :  219 90404 
o 165 | cpuTime 997.537 s
c last restart ## conflicts  :  314 59136 
o 164 | cpuTime 1489.42 s
s UNKNOWN
c Search is stopped by a limit (maybe time-limit)
cr positiVarArr: [ | 47(1->15) | 154(1->14) | 259(1->11) | 425(1->69) | 488(1->24) | 600(1->28) | 748(1->68) | 790(1->2) | 902(1->6) | 1079(1->75) | 1152(1->40) | 1243(1->23) | 1347(1->19) | 1510(1->74) | 1570(1->26) | 1696(1->44) | 1763(1->3) | 1873(1->5) | 2049(1->73) | 2106(1->22) | 2227(1->35) | 2366(1->66) | 2469(1->61) | 2580(1->64) | 2675(1->51) | 2773(1->41) | 2852(1->12) | 3013(1->65) | 3119(1->63) | 3211(1->47) | 3330(1->58) | 3398(1->18) | 3537(1->49) | 3566(2->1) | 3684(3->1) | 3864(4->52) | 3996(5->76) | 4084(6->56) | 4198(7->62) | 4237(8->1) | 4407(9->55) | 4491(10->31) | 4611(11->43) | 4746(12->70) | 4851(13->67) | 4922(14->30) | 5036(15->36) | 5077(16->1) | 5215(17->1) | 5374(18->50) | 5415(19->1) | 5553(20->13) | 5630(21->1) | 5742(22->1) | 5841(23->1) | 5976(24->4) | 6074(25->1) | 6245(26->57) | 6291(27->1) | 6395(28->1) | 6557(29->45) | 6691(30->71) | 6753(31->25) | 6807(32->1) | 6941(33->1) | 7098(34->46) | 7169(35->9) | 7240(36->1) | 7396(37->20) | 7523(38->39) | 7609(39->17) | 7673(40->1) | 7782(41->1) | 7924(42->8) | 8025(43->1) | 8180(44->48) | 8232(45->1) | 8377(46->29) | 8477(47->21) | 8551(48->1) | 8704(49->32) | 8813(50->33) | 8872(51->1) | 9049(52->53) | 9142(53->38) | 9284(54->72) | 9301(55->1) | 9444(56->16) | 9543(57->7) | 9654(58->10) | 9727(59->1) | 9856(60->1) | 10002(61->34) | 10076(62->1) | 10162(63->1) | 10281(64->1) | 10390(65->1) | 10567(66->59) | 10604(67->1) | 10761(68->37) | 10817(69->1) | 11000(70->60) | 11024(71->1) | 11135(72->1) | 11262(73->1) | 11414(74->42) | 11534(75->54) | 11615(76->27) | ]
cr the 1-th chain: [ 1->15->36->1 ] (#non-depot=2) {#cumul.=3}
cr the 2-th chain: [ 1->14->30->71->1 ] (#non-depot=3) {#cumul.=6}
cr the 3-th chain: [ 1->11->43->1 ] (#non-depot=2) {#cumul.=8}
cr the 4-th chain: [ 1->69->1 ] (#non-depot=1) {#cumul.=9}
cr the 5-th chain: [ 1->24->4->52->53->38->39->17->1 ] (#non-depot=7) {#cumul.=16}
cr the 6-th chain: [ 1->28->1 ] (#non-depot=1) {#cumul.=17}
cr the 7-th chain: [ 1->68->37->20->13->67->1 ] (#non-depot=5) {#cumul.=22}
cr the 8-th chain: [ 1->2->1 ] (#non-depot=1) {#cumul.=23}
cr the 9-th chain: [ 1->6->56->16->1 ] (#non-depot=3) {#cumul.=26}
cr the 10-th chain: [ 1->75->54->72->1 ] (#non-depot=3) {#cumul.=29}
cr the 11-th chain: [ 1->40->1 ] (#non-depot=1) {#cumul.=30}
cr the 12-th chain: [ 1->23->1 ] (#non-depot=1) {#cumul.=31}
cr the 13-th chain: [ 1->19->1 ] (#non-depot=1) {#cumul.=32}
cr the 14-th chain: [ 1->74->42->8->1 ] (#non-depot=3) {#cumul.=35}
cr the 15-th chain: [ 1->26->57->7->62->1 ] (#non-depot=4) {#cumul.=39}
cr the 16-th chain: [ 1->44->48->1 ] (#non-depot=2) {#cumul.=41}
cr the 17-th chain: [ 1->3->1 ] (#non-depot=1) {#cumul.=42}
cr the 18-th chain: [ 1->5->76->27->1 ] (#non-depot=3) {#cumul.=45}
cr the 19-th chain: [ 1->73->1 ] (#non-depot=1) {#cumul.=46}
cr the 20-th chain: [ 1->22->1 ] (#non-depot=1) {#cumul.=47}
cr the 21-th chain: [ 1->35->9->55->1 ] (#non-depot=3) {#cumul.=50}
cr the 22-th chain: [ 1->66->59->1 ] (#non-depot=2) {#cumul.=52}
cr the 23-th chain: [ 1->61->34->46->29->45->1 ] (#non-depot=5) {#cumul.=57}
cr the 24-th chain: [ 1->64->1 ] (#non-depot=1) {#cumul.=58}
cr the 25-th chain: [ 1->51->1 ] (#non-depot=1) {#cumul.=59}
cr the 26-th chain: [ 1->41->1 ] (#non-depot=1) {#cumul.=60}
cr the 27-th chain: [ 1->12->70->60->1 ] (#non-depot=3) {#cumul.=63}
cr the 28-th chain: [ 1->65->1 ] (#non-depot=1) {#cumul.=64}
cr the 29-th chain: [ 1->63->1 ] (#non-depot=1) {#cumul.=65}
cr the 30-th chain: [ 1->47->21->1 ] (#non-depot=2) {#cumul.=67}
cr the 31-th chain: [ 1->58->10->31->25->1 ] (#non-depot=4) {#cumul.=71}
cr the 32-th chain: [ 1->18->50->33->1 ] (#non-depot=3) {#cumul.=74}
cr the 33-th chain: [ 1->49->32->1 ] (#non-depot=2) {#cumul.=76}
c Latest Answer = 0 by 14 loops
c restarts              : 11426
c conflicts             : 2363320        (657 /sec)
c decisions             : 173055411      (0.00 % random) (48094 /sec)
c propagations          : 34114031594    (9480758 /sec)
c conflict literals     : 599685358      (24.07 % deleted)
c Memory used           : 6104.00 MB
c CPU time              : 3598.24 s
